nK = 1413;
nT = 6;
nI = 14;
L = 29;
TT = 324;
np = 1;
nc = 3;
b = [37, 41, 48, 33, 24, 67, 65, 24, 49, 22, 32, 41, 61, 70];
d = [73, 90, 129, 103, 50, 122, 135, 81, 122, 124, 141, 100, 111, 125];
m = [1.9, 2.4, 1.3, 2.1, 2.1, 1.7, 1.7, 2.4, 1.4, 1.8, 2, 1.7, 2.4, 2];
pt = [0.31, 0.35, 0.35, 0.33, 0.22, 0.3];
st = [13.95, 20.65, 15.75, 13.86, 13.2, 12.9];
arc = {<1, 0, 1, 1, 0, 0, 0, [1, 1, 1, 1, 1, 1]>, <2, 1, 2, 1, 0, 0, 0, [1, 1, 1, 1, 1, 1]>, <3, 2, 3, 1, 0, 0, 0, [1, 1, 1, 1, 1, 1]>, <4, 3, 4, 1, 0, 0, 0, [1, 1, 1, 1, 1, 1]>, <5, 4, 5, 1, 0, 0, 0, [1, 1, 1, 1, 1, 1]>, <6, 5, 6, 1, 0, 0, 0, [1, 1, 1, 1, 1, 1]>, <7, 6, 7, 1, 0, 0, 0, [1, 1, 1, 1, 1, 1]>, <8, 7, 8, 1, 0, 0, 0, [1, 1, 1, 1, 1, 1]>, <9, 8, 9, 1, 0, 0, 0, [1, 1, 1, 1, 1, 1]>, <10, 9, 10, 1, 0, 0, 0, [1, 1, 1, 1, 1, 1]>, <11, 10, 11, 1, 0, 0, 0, [1, 1, 1, 1, 1, 1]>, <12, 11, 12, 1, 0, 0, 0, [1, 1, 1, 1, 1, 1]>, <13, 12, 13, 1, 0, 0, 0, [1, 1, 1, 1, 1, 1]>, <14, 13, 14, 1, 0, 0, 0, [1, 1, 1, 1, 1, 1]>, <15, 14, 15, 1, 0, 0, 0, [1, 1, 1, 1, 1, 1]>, <16, 15, 16, 1, 0, 0, 0, [1, 1, 1, 1, 1, 1]>, <17, 16, 17, 1, 0, 0, 0, [1, 1, 1, 1, 1, 1]>, <18, 17, 18, 1, 0, 0, 0, [1, 1, 1, 1, 1, 1]>, <19, 18, 19, 1, 0, 0, 0, [1, 1, 1, 1, 1, 1]>, <20, 19, 20, 1, 0, 0, 0, [1, 1, 1, 1, 1, 1]>, <21, 20, 21, 1, 0, 0, 0, [1, 1, 1, 1, 1, 1]>, <22, 21, 22, 1, 0, 0, 0, [1, 1, 1, 1, 1, 1]>, <23, 22, 23, 1, 0, 0, 0, [1, 1, 1, 1, 1, 1]>, <24, 23, 24, 1, 0, 0, 0, [1, 1, 1, 1, 1, 1]>, <25, 24, 25, 1, 0, 0, 0, [1, 1, 1, 1, 1, 1]>, <26, 25, 26, 1, 0, 0, 0, [1, 1, 1, 1, 1, 1]>, <27, 26, 27, 1, 0, 0, 0, [1, 1, 1, 1, 1, 1]>, <28, 27, 28, 1, 0, 0, 0, [1, 1, 1, 1, 1, 1]>, <29, 28, 29, 1, 0, 0, 0, [1, 1, 1, 1, 1, 1]>, <30, 0, 13, 13, 1, 0, 0, [1, 0, 0, 1, 1, 1]>, <31, 1, 14, 13, 1, 0, 0, [1, 0, 0, 1, 1, 1]>, <32, 2, 15, 13, 1, 0, 0, [1, 0, 0, 1, 1, 1]>, <33, 3, 16, 13, 1, 0, 0, [1, 0, 0, 1, 1, 1]>, <34, 4, 17, 13, 1, 0, 0, [1, 0, 0, 1, 1, 1]>, <35, 5, 18, 13, 1, 0, 0, [1, 0, 0, 1, 1, 1]>, <36, 7, 20, 13, 1, 0, 0, [1, 0, 0, 1, 1, 1]>, <37, 8, 21, 13, 1, 0, 0, [1, 0, 0, 1, 1, 1]>, <38, 9, 22, 13, 1, 0, 0, [1, 0, 0, 1, 1, 1]>, <39, 10, 23, 13, 1, 0, 0, [1, 0, 0, 1, 1, 1]>, <40, 11, 24, 13, 1, 0, 0, [1, 0, 0, 1, 1, 1]>, <41, 12, 25, 13, 1, 0, 0, [1, 0, 0, 1, 1, 1]>, <42, 13, 26, 13, 1, 0, 0, [1, 0, 0, 1, 1, 1]>, <43, 14, 27, 13, 1, 0, 0, [1, 0, 0, 1, 1, 1]>, <44, 15, 28, 13, 1, 0, 0, [1, 0, 0, 1, 1, 1]>, <45, 16, 29, 13, 1, 0, 0, [1, 0, 0, 1, 1, 1]>, <46, 1, 12, 11, 2, 0, 0, [1, 0, 0, 1, 1, 1]>, <47, 2, 13, 11, 2, 0, 0, [1, 0, 0, 1, 1, 1]>, <48, 3, 14, 11, 2, 0, 0, [1, 0, 0, 1, 1, 1]>, <49, 4, 15, 11, 2, 0, 0, [1, 0, 0, 1, 1, 1]>, <50, 5, 16, 11, 2, 0, 0, [1, 0, 0, 1, 1, 1]>, <51, 9, 20, 11, 2, 0, 0, [1, 0, 0, 1, 1, 1]>, <52, 10, 21, 11, 2, 0, 0, [1, 0, 0, 1, 1, 1]>, <53, 11, 22, 11, 2, 0, 0, [1, 0, 0, 1, 1, 1]>, <54, 12, 23, 11, 2, 0, 0, [1, 0, 0, 1, 1, 1]>, <55, 13, 24, 11, 2, 0, 0, [1, 0, 0, 1, 1, 1]>, <56, 14, 25, 11, 2, 0, 0, [1, 0, 0, 1, 1, 1]>, <57, 15, 26, 11, 2, 0, 0, [1, 0, 0, 1, 1, 1]>, <58, 16, 27, 11, 2, 0, 0, [1, 0, 0, 1, 1, 1]>, <59, 17, 28, 11, 2, 0, 0, [1, 0, 0, 1, 1, 1]>, <60, 18, 29, 11, 2, 0, 0, [1, 0, 0, 1, 1, 1]>, <61, 1, 12, 11, 3, 1, 0, [0, 1, 1, 1, 1, 0]>, <62, 2, 13, 11, 3, 1, 0, [0, 1, 1, 1, 1, 0]>, <63, 3, 14, 11, 3, 1, 0, [0, 1, 1, 1, 1, 0]>, <64, 4, 15, 11, 3, 1, 0, [0, 1, 1, 1, 1, 0]>, <65, 5, 16, 11, 3, 1, 0, [0, 1, 1, 1, 1, 0]>, <66, 9, 20, 11, 3, 1, 0, [0, 1, 1, 1, 1, 0]>, <67, 10, 21, 11, 3, 1, 0, [0, 1, 1, 1, 1, 0]>, <68, 11, 22, 11, 3, 1, 0, [0, 1, 1, 1, 1, 0]>, <69, 12, 23, 11, 3, 1, 0, [0, 1, 1, 1, 1, 0]>, <70, 13, 24, 11, 3, 1, 0, [0, 1, 1, 1, 1, 0]>, <71, 14, 25, 11, 3, 1, 0, [0, 1, 1, 1, 1, 0]>, <72, 15, 26, 11, 3, 1, 0, [0, 1, 1, 1, 1, 0]>, <73, 16, 27, 11, 3, 1, 0, [0, 1, 1, 1, 1, 0]>, <74, 17, 28, 11, 3, 1, 0, [0, 1, 1, 1, 1, 0]>, <75, 18, 29, 11, 3, 1, 0, [0, 1, 1, 1, 1, 0]>, <76, 1, 12, 11, 4, 0, 0, [0, 0, 1, 1, 1, 1]>, <77, 2, 13, 11, 4, 0, 0, [0, 0, 1, 1, 1, 1]>, <78, 3, 14, 11, 4, 0, 0, [0, 0, 1, 1, 1, 1]>, <79, 4, 15, 11, 4, 0, 0, [0, 0, 1, 1, 1, 1]>, <80, 5, 16, 11, 4, 0, 0, [0, 0, 1, 1, 1, 1]>, <81, 9, 20, 11, 4, 0, 0, [0, 0, 1, 1, 1, 1]>, <82, 10, 21, 11, 4, 0, 0, [0, 0, 1, 1, 1, 1]>, <83, 11, 22, 11, 4, 0, 0, [0, 0, 1, 1, 1, 1]>, <84, 12, 23, 11, 4, 0, 0, [0, 0, 1, 1, 1, 1]>, <85, 13, 24, 11, 4, 0, 0, [0, 0, 1, 1, 1, 1]>, <86, 14, 25, 11, 4, 0, 0, [0, 0, 1, 1, 1, 1]>, <87, 15, 26, 11, 4, 0, 0, [0, 0, 1, 1, 1, 1]>, <88, 16, 27, 11, 4, 0, 0, [0, 0, 1, 1, 1, 1]>, <89, 17, 28, 11, 4, 0, 0, [0, 0, 1, 1, 1, 1]>, <90, 18, 29, 11, 4, 0, 0, [0, 0, 1, 1, 1, 1]>, <91, 1, 12, 11, 5, 0, 1, [0, 0, 1, 1, 1, 1]>, <92, 2, 13, 11, 5, 0, 1, [0, 0, 1, 1, 1, 1]>, <93, 3, 14, 11, 5, 0, 1, [0, 0, 1, 1, 1, 1]>, <94, 4, 15, 11, 5, 0, 1, [0, 0, 1, 1, 1, 1]>, <95, 5, 16, 11, 5, 0, 1, [0, 0, 1, 1, 1, 1]>, <96, 9, 20, 11, 5, 0, 1, [0, 0, 1, 1, 1, 1]>, <97, 10, 21, 11, 5, 0, 1, [0, 0, 1, 1, 1, 1]>, <98, 11, 22, 11, 5, 0, 1, [0, 0, 1, 1, 1, 1]>, <99, 12, 23, 11, 5, 0, 1, [0, 0, 1, 1, 1, 1]>, <100, 13, 24, 11, 5, 0, 1, [0, 0, 1, 1, 1, 1]>, <101, 14, 25, 11, 5, 0, 1, [0, 0, 1, 1, 1, 1]>, <102, 15, 26, 11, 5, 0, 1, [0, 0, 1, 1, 1, 1]>, <103, 16, 27, 11, 5, 0, 1, [0, 0, 1, 1, 1, 1]>, <104, 17, 28, 11, 5, 0, 1, [0, 0, 1, 1, 1, 1]>, <105, 18, 29, 11, 5, 0, 1, [0, 0, 1, 1, 1, 1]>, <106, 0, 12, 12, 6, 0, 0, [0, 1, 1, 1, 1, 0]>, <107, 1, 13, 12, 6, 0, 0, [0, 1, 1, 1, 1, 0]>, <108, 2, 14, 12, 6, 0, 0, [0, 1, 1, 1, 1, 0]>, <109, 3, 15, 12, 6, 0, 0, [0, 1, 1, 1, 1, 0]>, <110, 4, 16, 12, 6, 0, 0, [0, 1, 1, 1, 1, 0]>, <111, 5, 17, 12, 6, 0, 0, [0, 1, 1, 1, 1, 0]>, <112, 8, 20, 12, 6, 0, 0, [0, 1, 1, 1, 1, 0]>, <113, 9, 21, 12, 6, 0, 0, [0, 1, 1, 1, 1, 0]>, <114, 10, 22, 12, 6, 0, 0, [0, 1, 1, 1, 1, 0]>, <115, 11, 23, 12, 6, 0, 0, [0, 1, 1, 1, 1, 0]>, <116, 12, 24, 12, 6, 0, 0, [0, 1, 1, 1, 1, 0]>, <117, 13, 25, 12, 6, 0, 0, [0, 1, 1, 1, 1, 0]>, <118, 14, 26, 12, 6, 0, 0, [0, 1, 1, 1, 1, 0]>, <119, 15, 27, 12, 6, 0, 0, [0, 1, 1, 1, 1, 0]>, <120, 16, 28, 12, 6, 0, 0, [0, 1, 1, 1, 1, 0]>, <121, 17, 29, 12, 6, 0, 0, [0, 1, 1, 1, 1, 0]>, <122, 0, 12, 12, 7, 0, 1, [1, 0, 0, 1, 1, 1]>, <123, 1, 13, 12, 7, 0, 1, [1, 0, 0, 1, 1, 1]>, <124, 2, 14, 12, 7, 0, 1, [1, 0, 0, 1, 1, 1]>, <125, 3, 15, 12, 7, 0, 1, [1, 0, 0, 1, 1, 1]>, <126, 4, 16, 12, 7, 0, 1, [1, 0, 0, 1, 1, 1]>, <127, 5, 17, 12, 7, 0, 1, [1, 0, 0, 1, 1, 1]>, <128, 8, 20, 12, 7, 0, 1, [1, 0, 0, 1, 1, 1]>, <129, 9, 21, 12, 7, 0, 1, [1, 0, 0, 1, 1, 1]>, <130, 10, 22, 12, 7, 0, 1, [1, 0, 0, 1, 1, 1]>, <131, 11, 23, 12, 7, 0, 1, [1, 0, 0, 1, 1, 1]>, <132, 12, 24, 12, 7, 0, 1, [1, 0, 0, 1, 1, 1]>, <133, 13, 25, 12, 7, 0, 1, [1, 0, 0, 1, 1, 1]>, <134, 14, 26, 12, 7, 0, 1, [1, 0, 0, 1, 1, 1]>, <135, 15, 27, 12, 7, 0, 1, [1, 0, 0, 1, 1, 1]>, <136, 16, 28, 12, 7, 0, 1, [1, 0, 0, 1, 1, 1]>, <137, 17, 29, 12, 7, 0, 1, [1, 0, 0, 1, 1, 1]>, <138, 0, 13, 13, 8, 0, 1, [1, 1, 1, 0, 0, 1]>, <139, 1, 14, 13, 8, 0, 1, [1, 1, 1, 0, 0, 1]>, <140, 2, 15, 13, 8, 0, 1, [1, 1, 1, 0, 0, 1]>, <141, 3, 16, 13, 8, 0, 1, [1, 1, 1, 0, 0, 1]>, <142, 4, 17, 13, 8, 0, 1, [1, 1, 1, 0, 0, 1]>, <143, 5, 18, 13, 8, 0, 1, [1, 1, 1, 0, 0, 1]>, <144, 7, 20, 13, 8, 0, 1, [1, 1, 1, 0, 0, 1]>, <145, 8, 21, 13, 8, 0, 1, [1, 1, 1, 0, 0, 1]>, <146, 9, 22, 13, 8, 0, 1, [1, 1, 1, 0, 0, 1]>, <147, 10, 23, 13, 8, 0, 1, [1, 1, 1, 0, 0, 1]>, <148, 11, 24, 13, 8, 0, 1, [1, 1, 1, 0, 0, 1]>, <149, 12, 25, 13, 8, 0, 1, [1, 1, 1, 0, 0, 1]>, <150, 13, 26, 13, 8, 0, 1, [1, 1, 1, 0, 0, 1]>, <151, 14, 27, 13, 8, 0, 1, [1, 1, 1, 0, 0, 1]>, <152, 15, 28, 13, 8, 0, 1, [1, 1, 1, 0, 0, 1]>, <153, 16, 29, 13, 8, 0, 1, [1, 1, 1, 0, 0, 1]>, <154, 0, 14, 14, 9, 0, 1, [1, 1, 1, 0, 0, 1]>, <155, 1, 15, 14, 9, 0, 1, [1, 1, 1, 0, 0, 1]>, <156, 2, 16, 14, 9, 0, 1, [1, 1, 1, 0, 0, 1]>, <157, 3, 17, 14, 9, 0, 1, [1, 1, 1, 0, 0, 1]>, <158, 4, 18, 14, 9, 0, 1, [1, 1, 1, 0, 0, 1]>, <159, 5, 19, 14, 9, 0, 1, [1, 1, 1, 0, 0, 1]>, <160, 6, 20, 14, 9, 0, 1, [1, 1, 1, 0, 0, 1]>, <161, 7, 21, 14, 9, 0, 1, [1, 1, 1, 0, 0, 1]>, <162, 8, 22, 14, 9, 0, 1, [1, 1, 1, 0, 0, 1]>, <163, 9, 23, 14, 9, 0, 1, [1, 1, 1, 0, 0, 1]>, <164, 10, 24, 14, 9, 0, 1, [1, 1, 1, 0, 0, 1]>, <165, 11, 25, 14, 9, 0, 1, [1, 1, 1, 0, 0, 1]>, <166, 12, 26, 14, 9, 0, 1, [1, 1, 1, 0, 0, 1]>, <167, 13, 27, 14, 9, 0, 1, [1, 1, 1, 0, 0, 1]>, <168, 14, 28, 14, 9, 0, 1, [1, 1, 1, 0, 0, 1]>, <169, 15, 29, 14, 9, 0, 1, [1, 1, 1, 0, 0, 1]>, <170, 0, 15, 15, 10, 0, 0, [0, 1, 1, 1, 1, 0]>, <171, 1, 16, 15, 10, 0, 0, [0, 1, 1, 1, 1, 0]>, <172, 2, 17, 15, 10, 0, 0, [0, 1, 1, 1, 1, 0]>, <173, 3, 18, 15, 10, 0, 0, [0, 1, 1, 1, 1, 0]>, <174, 4, 19, 15, 10, 0, 0, [0, 1, 1, 1, 1, 0]>, <175, 5, 20, 15, 10, 0, 0, [0, 1, 1, 1, 1, 0]>, <176, 6, 21, 15, 10, 0, 0, [0, 1, 1, 1, 1, 0]>, <177, 7, 22, 15, 10, 0, 0, [0, 1, 1, 1, 1, 0]>, <178, 8, 23, 15, 10, 0, 0, [0, 1, 1, 1, 1, 0]>, <179, 9, 24, 15, 10, 0, 0, [0, 1, 1, 1, 1, 0]>, <180, 10, 25, 15, 10, 0, 0, [0, 1, 1, 1, 1, 0]>, <181, 11, 26, 15, 10, 0, 0, [0, 1, 1, 1, 1, 0]>, <182, 12, 27, 15, 10, 0, 0, [0, 1, 1, 1, 1, 0]>, <183, 13, 28, 15, 10, 0, 0, [0, 1, 1, 1, 1, 0]>, <184, 14, 29, 15, 10, 0, 0, [0, 1, 1, 1, 1, 0]>, <185, 0, 14, 14, 11, 0, 0, [1, 1, 1, 0, 0, 1]>, <186, 1, 15, 14, 11, 0, 0, [1, 1, 1, 0, 0, 1]>, <187, 2, 16, 14, 11, 0, 0, [1, 1, 1, 0, 0, 1]>, <188, 3, 17, 14, 11, 0, 0, [1, 1, 1, 0, 0, 1]>, <189, 4, 18, 14, 11, 0, 0, [1, 1, 1, 0, 0, 1]>, <190, 5, 19, 14, 11, 0, 0, [1, 1, 1, 0, 0, 1]>, <191, 6, 20, 14, 11, 0, 0, [1, 1, 1, 0, 0, 1]>, <192, 7, 21, 14, 11, 0, 0, [1, 1, 1, 0, 0, 1]>, <193, 8, 22, 14, 11, 0, 0, [1, 1, 1, 0, 0, 1]>, <194, 9, 23, 14, 11, 0, 0, [1, 1, 1, 0, 0, 1]>, <195, 10, 24, 14, 11, 0, 0, [1, 1, 1, 0, 0, 1]>, <196, 11, 25, 14, 11, 0, 0, [1, 1, 1, 0, 0, 1]>, <197, 12, 26, 14, 11, 0, 0, [1, 1, 1, 0, 0, 1]>, <198, 13, 27, 14, 11, 0, 0, [1, 1, 1, 0, 0, 1]>, <199, 14, 28, 14, 11, 0, 0, [1, 1, 1, 0, 0, 1]>, <200, 15, 29, 14, 11, 0, 0, [1, 1, 1, 0, 0, 1]>, <201, 0, 13, 13, 12, 0, 1, [0, 0, 1, 1, 1, 1]>, <202, 1, 14, 13, 12, 0, 1, [0, 0, 1, 1, 1, 1]>, <203, 2, 15, 13, 12, 0, 1, [0, 0, 1, 1, 1, 1]>, <204, 3, 16, 13, 12, 0, 1, [0, 0, 1, 1, 1, 1]>, <205, 4, 17, 13, 12, 0, 1, [0, 0, 1, 1, 1, 1]>, <206, 5, 18, 13, 12, 0, 1, [0, 0, 1, 1, 1, 1]>, <207, 7, 20, 13, 12, 0, 1, [0, 0, 1, 1, 1, 1]>, <208, 8, 21, 13, 12, 0, 1, [0, 0, 1, 1, 1, 1]>, <209, 9, 22, 13, 12, 0, 1, [0, 0, 1, 1, 1, 1]>, <210, 10, 23, 13, 12, 0, 1, [0, 0, 1, 1, 1, 1]>, <211, 11, 24, 13, 12, 0, 1, [0, 0, 1, 1, 1, 1]>, <212, 12, 25, 13, 12, 0, 1, [0, 0, 1, 1, 1, 1]>, <213, 13, 26, 13, 12, 0, 1, [0, 0, 1, 1, 1, 1]>, <214, 14, 27, 13, 12, 0, 1, [0, 0, 1, 1, 1, 1]>, <215, 15, 28, 13, 12, 0, 1, [0, 0, 1, 1, 1, 1]>, <216, 16, 29, 13, 12, 0, 1, [0, 0, 1, 1, 1, 1]>, <217, 1, 12, 11, 13, 0, 1, [1, 1, 0, 0, 1, 1]>, <218, 2, 13, 11, 13, 0, 1, [1, 1, 0, 0, 1, 1]>, <219, 3, 14, 11, 13, 0, 1, [1, 1, 0, 0, 1, 1]>, <220, 4, 15, 11, 13, 0, 1, [1, 1, 0, 0, 1, 1]>, <221, 5, 16, 11, 13, 0, 1, [1, 1, 0, 0, 1, 1]>, <222, 9, 20, 11, 13, 0, 1, [1, 1, 0, 0, 1, 1]>, <223, 10, 21, 11, 13, 0, 1, [1, 1, 0, 0, 1, 1]>, <224, 11, 22, 11, 13, 0, 1, [1, 1, 0, 0, 1, 1]>, <225, 12, 23, 11, 13, 0, 1, [1, 1, 0, 0, 1, 1]>, <226, 13, 24, 11, 13, 0, 1, [1, 1, 0, 0, 1, 1]>, <227, 14, 25, 11, 13, 0, 1, [1, 1, 0, 0, 1, 1]>, <228, 15, 26, 11, 13, 0, 1, [1, 1, 0, 0, 1, 1]>, <229, 16, 27, 11, 13, 0, 1, [1, 1, 0, 0, 1, 1]>, <230, 17, 28, 11, 13, 0, 1, [1, 1, 0, 0, 1, 1]>, <231, 18, 29, 11, 13, 0, 1, [1, 1, 0, 0, 1, 1]>, <232, 0, 12, 12, 14, 1, 0, [1, 0, 0, 1, 1, 1]>, <233, 1, 13, 12, 14, 1, 0, [1, 0, 0, 1, 1, 1]>, <234, 2, 14, 12, 14, 1, 0, [1, 0, 0, 1, 1, 1]>, <235, 3, 15, 12, 14, 1, 0, [1, 0, 0, 1, 1, 1]>, <236, 4, 16, 12, 14, 1, 0, [1, 0, 0, 1, 1, 1]>, <237, 5, 17, 12, 14, 1, 0, [1, 0, 0, 1, 1, 1]>, <238, 8, 20, 12, 14, 1, 0, [1, 0, 0, 1, 1, 1]>, <239, 9, 21, 12, 14, 1, 0, [1, 0, 0, 1, 1, 1]>, <240, 10, 22, 12, 14, 1, 0, [1, 0, 0, 1, 1, 1]>, <241, 11, 23, 12, 14, 1, 0, [1, 0, 0, 1, 1, 1]>, <242, 12, 24, 12, 14, 1, 0, [1, 0, 0, 1, 1, 1]>, <243, 13, 25, 12, 14, 1, 0, [1, 0, 0, 1, 1, 1]>, <244, 14, 26, 12, 14, 1, 0, [1, 0, 0, 1, 1, 1]>, <245, 15, 27, 12, 14, 1, 0, [1, 0, 0, 1, 1, 1]>, <246, 16, 28, 12, 14, 1, 0, [1, 0, 0, 1, 1, 1]>, <247, 17, 29, 12, 14, 1, 0, [1, 0, 0, 1, 1, 1]>};
